(set-logic QF_NRA)
(set-info :source |Benchmarks generated from hycomp (https://es-static.fbk.eu/tools/hycomp/). BMC instances of non-linear hybrid automata taken from: Alessandro Cimatti, Sergio Mover, Stefano Tonetta, A quantifier-free SMT encoding of non-linear hybrid automata, FMCAD 2012 and Alessandro Cimatti, Sergio Mover, Stefano Tonetta, Quantier-free encoding of invariants for Hybrid Systems, Formal Methods in System Design. This instance solves a BMC problem of depth 2 and uses the quantifier free encoding with equivalences encoding. Contacts: Sergio Mover (mover@fbk.eu), Stefano Tonetta (tonettas@fbk.eu), Alessandro Cimatti (cimatti@fbk.eu).|)
(set-info :smt-lib-version 2.0)
(set-info :category "industrial")
(set-info :status unsat)
;; MathSAT API call trace
;; generated on Mon Mar 19 10:38:59 2012
(declare-fun b.x__AT2 () Real)
(declare-fun b.EVENT.0__AT2 () Bool)
(declare-fun b.EVENT.1__AT2 () Bool)
(declare-fun b.y__AT0 () Real)
(declare-fun b.counter.0__AT0 () Bool)
(declare-fun b.EVENT.0__AT0 () Bool)
(declare-fun b.counter.3__AT0 () Bool)
(declare-fun b.counter.1__AT0 () Bool)
(declare-fun b.event_is_timed__AT1 () Bool)
(declare-fun b.speed_y__AT2 () Real)
(declare-fun b.bool_atom__AT1 () Bool)
(declare-fun b.g__AT0 () Real)
(declare-fun b.speed_y__AT0 () Real)
(declare-fun b.x__AT1 () Real)
(declare-fun b.y__AT1 () Real)
(declare-fun b.counter.2__AT0 () Bool)
(declare-fun b.counter.0__AT1 () Bool)
(declare-fun b.counter.1__AT1 () Bool)
(declare-fun b.counter.2__AT1 () Bool)
(declare-fun b.event_is_timed__AT0 () Bool)
(declare-fun b.counter.3__AT1 () Bool)
(declare-fun b.bool_atom__AT0 () Bool)
(declare-fun b.x__AT0 () Real)
(declare-fun b.event_is_timed__AT2 () Bool)
(declare-fun b.counter.0__AT2 () Bool)
(declare-fun b.delta__AT1 () Real)
(declare-fun b.speed_y__AT1 () Real)
(declare-fun b.counter.1__AT2 () Bool)
(declare-fun b.time__AT1 () Real)
(declare-fun b.EVENT.0__AT1 () Bool)
(declare-fun b.counter.2__AT2 () Bool)
(declare-fun b.bool_atom__AT2 () Bool)
(declare-fun b.time__AT0 () Real)
(declare-fun b.y__AT2 () Real)
(declare-fun b.EVENT.1__AT1 () Bool)
(declare-fun b.counter.3__AT2 () Bool)
(declare-fun b.time__AT2 () Real)
(declare-fun b.delta__AT0 () Real)
(declare-fun b.EVENT.1__AT0 () Bool)
(declare-fun b.delta__AT2 () Real)
(assert (let ((.def_66 (* (- 1.0) b.g__AT0)))
(let ((.def_69 (* (/ 1 2) .def_66)))
(let ((.def_82 (* 2.0 .def_69)))
(let ((.def_446 (* .def_82 b.delta__AT2)))
(let ((.def_447 (+ b.speed_y__AT2 .def_446)))
(let ((.def_451 (<= .def_447 0.0 )))
(let ((.def_450 (<= b.speed_y__AT2 0.0 )))
(let ((.def_452 (and .def_450 .def_451)))
(let ((.def_448 (<= 0.0 .def_447)))
(let ((.def_445 (<= 0.0 b.speed_y__AT2)))
(let ((.def_449 (and .def_445 .def_448)))
(let ((.def_453 (or .def_449 .def_452)))
(let ((.def_436 (* b.speed_y__AT2 b.delta__AT2)))
(let ((.def_434 (* b.delta__AT2 b.delta__AT2)))
(let ((.def_435 (* .def_69 .def_434)))
(let ((.def_437 (+ .def_435 .def_436)))
(let ((.def_422 (* (- 1.0) b.x__AT2)))
(let ((.def_423 (* b.x__AT2 .def_422)))
(let ((.def_438 (* (- 1.0) .def_423)))
(let ((.def_441 (+ .def_438 .def_437)))
(let ((.def_442 (+ b.y__AT2 .def_441)))
(let ((.def_443 (<= 0.0 .def_442)))
(let ((.def_424 (<= .def_423 b.y__AT2)))
(let ((.def_444 (and .def_424 .def_443)))
(let ((.def_454 (and .def_444 .def_453)))
(let ((.def_58 (<= b.g__AT0 10.0 )))
(let ((.def_57 (<= 8.0 b.g__AT0)))
(let ((.def_59 (and .def_57 .def_58)))
(let ((.def_455 (and .def_59 .def_454)))
(let ((.def_162 (not b.counter.0__AT1)))
(let ((.def_428 (or b.counter.1__AT1 .def_162)))
(let ((.def_157 (not b.counter.2__AT1)))
(let ((.def_429 (or .def_157 .def_428)))
(let ((.def_430 (or b.counter.3__AT1 .def_429)))
(let ((.def_425 (and .def_59 .def_424)))
(let ((.def_419 (not b.EVENT.0__AT2)))
(let ((.def_417 (not b.EVENT.1__AT2)))
(let ((.def_420 (or .def_417 .def_419)))
(let ((.def_331 (not b.counter.1__AT2)))
(let ((.def_4 (not b.counter.0__AT2)))
(let ((.def_410 (or .def_4 .def_331)))
(let ((.def_414 (or b.counter.3__AT2 .def_410)))
(let ((.def_411 (or b.counter.2__AT2 .def_410)))
(let ((.def_8 (not b.counter.2__AT2)))
(let ((.def_409 (or .def_4 .def_8)))
(let ((.def_412 (and .def_409 .def_411)))
(let ((.def_348 (not b.counter.3__AT2)))
(let ((.def_413 (or .def_348 .def_412)))
(let ((.def_415 (and .def_413 .def_414)))
(let ((.def_421 (and .def_415 .def_420)))
(let ((.def_426 (and .def_421 .def_425)))
(let ((.def_404 (<= 0.0 b.delta__AT1)))
(let ((.def_241 (not b.EVENT.0__AT1)))
(let ((.def_239 (not b.EVENT.1__AT1)))
(let ((.def_279 (and .def_239 .def_241)))
(let ((.def_281 (not .def_279)))
(let ((.def_405 (or .def_281 .def_404)))
(let ((.def_406 (or b.EVENT.1__AT1 .def_405)))
(let ((.def_316 (= b.bool_atom__AT1 b.bool_atom__AT2)))
(let ((.def_312 (= b.counter.0__AT2 b.counter.0__AT1)))
(let ((.def_310 (= b.counter.1__AT2 b.counter.1__AT1)))
(let ((.def_308 (= b.counter.2__AT2 b.counter.2__AT1)))
(let ((.def_307 (= b.counter.3__AT2 b.counter.3__AT1)))
(let ((.def_309 (and .def_307 .def_308)))
(let ((.def_311 (and .def_309 .def_310)))
(let ((.def_313 (and .def_311 .def_312)))
(let ((.def_400 (and .def_313 .def_316)))
(let ((.def_401 (or .def_281 .def_400)))
(let ((.def_402 (or b.EVENT.1__AT1 .def_401)))
(let ((.def_389 (* .def_66 b.delta__AT1)))
(let ((.def_390 (* (- 1.0) b.speed_y__AT2)))
(let ((.def_393 (+ .def_390 .def_389)))
(let ((.def_394 (+ b.speed_y__AT1 .def_393)))
(let ((.def_395 (= .def_394 0.0 )))
(let ((.def_380 (* (- 1.0) b.y__AT2)))
(let ((.def_258 (* b.speed_y__AT1 b.delta__AT1)))
(let ((.def_384 (+ .def_258 .def_380)))
(let ((.def_256 (* b.delta__AT1 b.delta__AT1)))
(let ((.def_257 (* .def_69 .def_256)))
(let ((.def_385 (+ .def_257 .def_384)))
(let ((.def_386 (+ b.y__AT1 .def_385)))
(let ((.def_387 (= .def_386 0.0 )))
(let ((.def_299 (= b.x__AT1 b.x__AT2)))
(let ((.def_388 (and .def_299 .def_387)))
(let ((.def_396 (and .def_388 .def_395)))
(let ((.def_397 (or .def_281 .def_396)))
(let ((.def_302 (= b.y__AT1 b.y__AT2)))
(let ((.def_375 (and .def_299 .def_302)))
(let ((.def_305 (= b.speed_y__AT1 b.speed_y__AT2)))
(let ((.def_376 (and .def_305 .def_375)))
(let ((.def_372 (= b.delta__AT1 0.0 )))
(let ((.def_373 (and .def_279 .def_372)))
(let ((.def_374 (not .def_373)))
(let ((.def_377 (or .def_374 .def_376)))
(let ((.def_378 (or b.EVENT.1__AT1 .def_377)))
(let ((.def_365 (and .def_305 .def_313)))
(let ((.def_366 (or b.bool_atom__AT1 .def_365)))
(let ((.def_340 (or .def_4 b.counter.0__AT1)))
(let ((.def_339 (or b.counter.0__AT2 .def_162)))
(let ((.def_341 (and .def_339 .def_340)))
(let ((.def_342 (and .def_331 .def_341)))
(let ((.def_343 (or b.counter.1__AT1 .def_342)))
(let ((.def_152 (not b.counter.1__AT1)))
(let ((.def_338 (or b.counter.1__AT2 .def_152)))
(let ((.def_344 (and .def_338 .def_343)))
(let ((.def_356 (and .def_8 .def_344)))
(let ((.def_357 (or b.counter.2__AT1 .def_356)))
(let ((.def_351 (and .def_162 .def_331)))
(let ((.def_352 (or b.counter.1__AT1 .def_351)))
(let ((.def_353 (and .def_338 .def_352)))
(let ((.def_354 (and b.counter.2__AT2 .def_353)))
(let ((.def_355 (or .def_157 .def_354)))
(let ((.def_358 (and .def_355 .def_357)))
(let ((.def_359 (and b.counter.3__AT2 .def_358)))
(let ((.def_360 (or b.counter.3__AT1 .def_359)))
(let ((.def_345 (and b.counter.2__AT2 .def_344)))
(let ((.def_346 (or b.counter.2__AT1 .def_345)))
(let ((.def_334 (or b.counter.1__AT2 b.counter.1__AT1)))
(let ((.def_332 (and b.counter.0__AT2 .def_331)))
(let ((.def_333 (or .def_152 .def_332)))
(let ((.def_335 (and .def_333 .def_334)))
(let ((.def_336 (and .def_8 .def_335)))
(let ((.def_337 (or .def_157 .def_336)))
(let ((.def_347 (and .def_337 .def_346)))
(let ((.def_349 (and .def_347 .def_348)))
(let ((.def_171 (not b.counter.3__AT1)))
(let ((.def_350 (or .def_171 .def_349)))
(let ((.def_361 (and .def_350 .def_360)))
(let ((.def_328 (* b.speed_y__AT2 b.speed_y__AT2)))
(let ((.def_148 (* b.speed_y__AT1 b.speed_y__AT1)))
(let ((.def_329 (= .def_148 .def_328)))
(let ((.def_326 (+ b.speed_y__AT1 b.speed_y__AT2)))
(let ((.def_327 (= .def_326 0.0 )))
(let ((.def_330 (and .def_327 .def_329)))
(let ((.def_362 (and .def_330 .def_361)))
(let ((.def_325 (not b.bool_atom__AT1)))
(let ((.def_363 (or .def_325 .def_362)))
(let ((.def_267 (<= 0.0 b.speed_y__AT1)))
(let ((.def_322 (not .def_267)))
(let ((.def_244 (* (- 1.0) b.x__AT1)))
(let ((.def_245 (* b.x__AT1 .def_244)))
(let ((.def_321 (= b.y__AT1 .def_245)))
(let ((.def_323 (and .def_321 .def_322)))
(let ((.def_324 (= b.bool_atom__AT1 .def_323)))
(let ((.def_364 (and .def_324 .def_363)))
(let ((.def_367 (and .def_364 .def_366)))
(let ((.def_368 (and .def_299 .def_367)))
(let ((.def_369 (and .def_302 .def_368)))
(let ((.def_370 (or .def_279 .def_369)))
(let ((.def_371 (or b.EVENT.1__AT1 .def_370)))
(let ((.def_379 (and .def_371 .def_378)))
(let ((.def_398 (and .def_379 .def_397)))
(let ((.def_286 (= b.time__AT1 b.time__AT2)))
(let ((.def_300 (and .def_286 .def_299)))
(let ((.def_303 (and .def_300 .def_302)))
(let ((.def_306 (and .def_303 .def_305)))
(let ((.def_314 (and .def_306 .def_313)))
(let ((.def_317 (and .def_314 .def_316)))
(let ((.def_318 (or .def_239 .def_317)))
(let ((.def_289 (* (- 1.0) b.time__AT2)))
(let ((.def_292 (+ b.delta__AT1 .def_289)))
(let ((.def_293 (+ b.time__AT1 .def_292)))
(let ((.def_294 (= .def_293 0.0 )))
(let ((.def_295 (or .def_281 .def_294)))
(let ((.def_296 (or b.EVENT.1__AT1 .def_295)))
(let ((.def_287 (or .def_279 .def_286)))
(let ((.def_288 (or b.EVENT.1__AT1 .def_287)))
(let ((.def_297 (and .def_288 .def_296)))
(let ((.def_319 (and .def_297 .def_318)))
(let ((.def_283 (= .def_281 b.event_is_timed__AT2)))
(let ((.def_280 (= b.event_is_timed__AT1 .def_279)))
(let ((.def_284 (and .def_280 .def_283)))
(let ((.def_320 (and .def_284 .def_319)))
(let ((.def_399 (and .def_320 .def_398)))
(let ((.def_403 (and .def_399 .def_402)))
(let ((.def_407 (and .def_403 .def_406)))
(let ((.def_408 (and .def_239 .def_407)))
(let ((.def_427 (and .def_408 .def_426)))
(let ((.def_431 (and .def_427 .def_430)))
(let ((.def_268 (* .def_82 b.delta__AT1)))
(let ((.def_269 (+ b.speed_y__AT1 .def_268)))
(let ((.def_273 (<= .def_269 0.0 )))
(let ((.def_272 (<= b.speed_y__AT1 0.0 )))
(let ((.def_274 (and .def_272 .def_273)))
(let ((.def_270 (<= 0.0 .def_269)))
(let ((.def_271 (and .def_267 .def_270)))
(let ((.def_275 (or .def_271 .def_274)))
(let ((.def_259 (+ .def_257 .def_258)))
(let ((.def_260 (* (- 1.0) .def_245)))
(let ((.def_263 (+ .def_260 .def_259)))
(let ((.def_264 (+ b.y__AT1 .def_263)))
(let ((.def_265 (<= 0.0 .def_264)))
(let ((.def_246 (<= .def_245 b.y__AT1)))
(let ((.def_266 (and .def_246 .def_265)))
(let ((.def_276 (and .def_266 .def_275)))
(let ((.def_277 (and .def_59 .def_276)))
(let ((.def_28 (not b.counter.0__AT0)))
(let ((.def_250 (or b.counter.1__AT0 .def_28)))
(let ((.def_31 (not b.counter.2__AT0)))
(let ((.def_251 (or .def_31 .def_250)))
(let ((.def_252 (or b.counter.3__AT0 .def_251)))
(let ((.def_247 (and .def_59 .def_246)))
(let ((.def_242 (or .def_239 .def_241)))
(let ((.def_232 (or .def_152 .def_162)))
(let ((.def_236 (or b.counter.3__AT1 .def_232)))
(let ((.def_233 (or b.counter.2__AT1 .def_232)))
(let ((.def_231 (or .def_157 .def_162)))
(let ((.def_234 (and .def_231 .def_233)))
(let ((.def_235 (or .def_171 .def_234)))
(let ((.def_237 (and .def_235 .def_236)))
(let ((.def_243 (and .def_237 .def_242)))
(let ((.def_248 (and .def_243 .def_247)))
(let ((.def_226 (<= 0.0 b.delta__AT0)))
(let ((.def_47 (not b.EVENT.0__AT0)))
(let ((.def_45 (not b.EVENT.1__AT0)))
(let ((.def_94 (and .def_45 .def_47)))
(let ((.def_96 (not .def_94)))
(let ((.def_227 (or .def_96 .def_226)))
(let ((.def_228 (or b.EVENT.1__AT0 .def_227)))
(let ((.def_136 (= b.bool_atom__AT0 b.bool_atom__AT1)))
(let ((.def_131 (= b.counter.0__AT0 b.counter.0__AT1)))
(let ((.def_128 (= b.counter.1__AT0 b.counter.1__AT1)))
(let ((.def_125 (= b.counter.2__AT0 b.counter.2__AT1)))
(let ((.def_123 (= b.counter.3__AT0 b.counter.3__AT1)))
(let ((.def_126 (and .def_123 .def_125)))
(let ((.def_129 (and .def_126 .def_128)))
(let ((.def_132 (and .def_129 .def_131)))
(let ((.def_222 (and .def_132 .def_136)))
(let ((.def_223 (or .def_96 .def_222)))
(let ((.def_224 (or b.EVENT.1__AT0 .def_223)))
(let ((.def_211 (* b.delta__AT0 .def_66)))
(let ((.def_212 (* (- 1.0) b.speed_y__AT1)))
(let ((.def_215 (+ .def_212 .def_211)))
(let ((.def_216 (+ b.speed_y__AT0 .def_215)))
(let ((.def_217 (= .def_216 0.0 )))
(let ((.def_203 (* (- 1.0) b.y__AT1)))
(let ((.def_72 (* b.delta__AT0 b.speed_y__AT0)))
(let ((.def_206 (+ .def_72 .def_203)))
(let ((.def_65 (* b.delta__AT0 b.delta__AT0)))
(let ((.def_70 (* .def_65 .def_69)))
(let ((.def_207 (+ .def_70 .def_206)))
(let ((.def_208 (+ b.y__AT0 .def_207)))
(let ((.def_209 (= .def_208 0.0 )))
(let ((.def_114 (= b.x__AT0 b.x__AT1)))
(let ((.def_210 (and .def_114 .def_209)))
(let ((.def_218 (and .def_210 .def_217)))
(let ((.def_219 (or .def_96 .def_218)))
(let ((.def_117 (= b.y__AT0 b.y__AT1)))
(let ((.def_198 (and .def_114 .def_117)))
(let ((.def_120 (= b.speed_y__AT0 b.speed_y__AT1)))
(let ((.def_199 (and .def_120 .def_198)))
(let ((.def_195 (= b.delta__AT0 0.0 )))
(let ((.def_196 (and .def_94 .def_195)))
(let ((.def_197 (not .def_196)))
(let ((.def_200 (or .def_197 .def_199)))
(let ((.def_201 (or b.EVENT.1__AT0 .def_200)))
(let ((.def_188 (and .def_120 .def_132)))
(let ((.def_189 (or b.bool_atom__AT0 .def_188)))
(let ((.def_163 (or b.counter.0__AT0 .def_162)))
(let ((.def_161 (or .def_28 b.counter.0__AT1)))
(let ((.def_164 (and .def_161 .def_163)))
(let ((.def_165 (and .def_152 .def_164)))
(let ((.def_166 (or b.counter.1__AT0 .def_165)))
(let ((.def_26 (not b.counter.1__AT0)))
(let ((.def_160 (or .def_26 b.counter.1__AT1)))
(let ((.def_167 (and .def_160 .def_166)))
(let ((.def_179 (and .def_157 .def_167)))
(let ((.def_180 (or b.counter.2__AT0 .def_179)))
(let ((.def_174 (and .def_28 .def_152)))
(let ((.def_175 (or b.counter.1__AT0 .def_174)))
(let ((.def_176 (and .def_160 .def_175)))
(let ((.def_177 (and b.counter.2__AT1 .def_176)))
(let ((.def_178 (or .def_31 .def_177)))
(let ((.def_181 (and .def_178 .def_180)))
(let ((.def_182 (and b.counter.3__AT1 .def_181)))
(let ((.def_183 (or b.counter.3__AT0 .def_182)))
(let ((.def_168 (and b.counter.2__AT1 .def_167)))
(let ((.def_169 (or b.counter.2__AT0 .def_168)))
(let ((.def_155 (or b.counter.1__AT0 b.counter.1__AT1)))
(let ((.def_153 (and b.counter.0__AT1 .def_152)))
(let ((.def_154 (or .def_26 .def_153)))
(let ((.def_156 (and .def_154 .def_155)))
(let ((.def_158 (and .def_156 .def_157)))
(let ((.def_159 (or .def_31 .def_158)))
(let ((.def_170 (and .def_159 .def_169)))
(let ((.def_172 (and .def_170 .def_171)))
(let ((.def_34 (not b.counter.3__AT0)))
(let ((.def_173 (or .def_34 .def_172)))
(let ((.def_184 (and .def_173 .def_183)))
(let ((.def_149 (* b.speed_y__AT0 b.speed_y__AT0)))
(let ((.def_150 (= .def_148 .def_149)))
(let ((.def_146 (+ b.speed_y__AT0 b.speed_y__AT1)))
(let ((.def_147 (= .def_146 0.0 )))
(let ((.def_151 (and .def_147 .def_150)))
(let ((.def_185 (and .def_151 .def_184)))
(let ((.def_145 (not b.bool_atom__AT0)))
(let ((.def_186 (or .def_145 .def_185)))
(let ((.def_81 (<= 0.0 b.speed_y__AT0)))
(let ((.def_142 (not .def_81)))
(let ((.def_52 (* (- 1.0) b.x__AT0)))
(let ((.def_53 (* b.x__AT0 .def_52)))
(let ((.def_141 (= b.y__AT0 .def_53)))
(let ((.def_143 (and .def_141 .def_142)))
(let ((.def_144 (= b.bool_atom__AT0 .def_143)))
(let ((.def_187 (and .def_144 .def_186)))
(let ((.def_190 (and .def_187 .def_189)))
(let ((.def_191 (and .def_114 .def_190)))
(let ((.def_192 (and .def_117 .def_191)))
(let ((.def_193 (or .def_94 .def_192)))
(let ((.def_194 (or b.EVENT.1__AT0 .def_193)))
(let ((.def_202 (and .def_194 .def_201)))
(let ((.def_220 (and .def_202 .def_219)))
(let ((.def_101 (= b.time__AT0 b.time__AT1)))
(let ((.def_115 (and .def_101 .def_114)))
(let ((.def_118 (and .def_115 .def_117)))
(let ((.def_121 (and .def_118 .def_120)))
(let ((.def_133 (and .def_121 .def_132)))
(let ((.def_137 (and .def_133 .def_136)))
(let ((.def_138 (or .def_45 .def_137)))
(let ((.def_104 (* (- 1.0) b.time__AT1)))
(let ((.def_107 (+ b.delta__AT0 .def_104)))
(let ((.def_108 (+ b.time__AT0 .def_107)))
(let ((.def_109 (= .def_108 0.0 )))
(let ((.def_110 (or .def_96 .def_109)))
(let ((.def_111 (or b.EVENT.1__AT0 .def_110)))
(let ((.def_102 (or .def_94 .def_101)))
(let ((.def_103 (or b.EVENT.1__AT0 .def_102)))
(let ((.def_112 (and .def_103 .def_111)))
(let ((.def_139 (and .def_112 .def_138)))
(let ((.def_98 (= .def_96 b.event_is_timed__AT1)))
(let ((.def_95 (= b.event_is_timed__AT0 .def_94)))
(let ((.def_99 (and .def_95 .def_98)))
(let ((.def_140 (and .def_99 .def_139)))
(let ((.def_221 (and .def_140 .def_220)))
(let ((.def_225 (and .def_221 .def_224)))
(let ((.def_229 (and .def_225 .def_228)))
(let ((.def_230 (and .def_45 .def_229)))
(let ((.def_249 (and .def_230 .def_248)))
(let ((.def_253 (and .def_249 .def_252)))
(let ((.def_83 (* b.delta__AT0 .def_82)))
(let ((.def_84 (+ b.speed_y__AT0 .def_83)))
(let ((.def_88 (<= .def_84 0.0 )))
(let ((.def_87 (<= b.speed_y__AT0 0.0 )))
(let ((.def_89 (and .def_87 .def_88)))
(let ((.def_85 (<= 0.0 .def_84)))
(let ((.def_86 (and .def_81 .def_85)))
(let ((.def_90 (or .def_86 .def_89)))
(let ((.def_73 (+ .def_70 .def_72)))
(let ((.def_74 (* (- 1.0) .def_53)))
(let ((.def_77 (+ .def_74 .def_73)))
(let ((.def_78 (+ b.y__AT0 .def_77)))
(let ((.def_79 (<= 0.0 .def_78)))
(let ((.def_54 (<= .def_53 b.y__AT0)))
(let ((.def_80 (and .def_54 .def_79)))
(let ((.def_91 (and .def_80 .def_90)))
(let ((.def_92 (and .def_59 .def_91)))
(let ((.def_60 (and .def_54 .def_59)))
(let ((.def_48 (or .def_45 .def_47)))
(let ((.def_38 (or .def_26 .def_28)))
(let ((.def_42 (or b.counter.3__AT0 .def_38)))
(let ((.def_39 (or b.counter.2__AT0 .def_38)))
(let ((.def_37 (or .def_28 .def_31)))
(let ((.def_40 (and .def_37 .def_39)))
(let ((.def_41 (or .def_34 .def_40)))
(let ((.def_43 (and .def_41 .def_42)))
(let ((.def_49 (and .def_43 .def_48)))
(let ((.def_61 (and .def_49 .def_60)))
(let ((.def_29 (and .def_26 .def_28)))
(let ((.def_32 (and .def_29 .def_31)))
(let ((.def_35 (and .def_32 .def_34)))
(let ((.def_23 (= b.y__AT0 10.0 )))
(let ((.def_19 (= b.x__AT0 0.0 )))
(let ((.def_15 (= b.time__AT0 0.0 )))
(let ((.def_17 (and .def_15 b.event_is_timed__AT0)))
(let ((.def_20 (and .def_17 .def_19)))
(let ((.def_24 (and .def_20 .def_23)))
(let ((.def_36 (and .def_24 .def_35)))
(let ((.def_62 (and .def_36 .def_61)))
(let ((.def_6 (or .def_4 b.counter.1__AT2)))
(let ((.def_9 (or .def_6 .def_8)))
(let ((.def_11 (or .def_9 b.counter.3__AT2)))
(let ((.def_12 (not .def_11)))
(let ((.def_63 (and .def_12 .def_62)))
(let ((.def_93 (and .def_63 .def_92)))
(let ((.def_254 (and .def_93 .def_253)))
(let ((.def_278 (and .def_254 .def_277)))
(let ((.def_432 (and .def_278 .def_431)))
(let ((.def_456 (and .def_432 .def_455)))
.def_456)))))))))))))))))))))))))))))))))))))))))))))))))))))))))))))))))))))))))))))))))))))))))))))))))))))))))))))))))))))))))))))))))))))))))))))))))))))))))))))))))))))))))))))))))))))))))))))))))))))))))))))))))))))))))))))))))))))))))))))))))))))))))))))))))))))))))))))))))))))))))))))))))))))))))))))))))))))))))))))))))))))))))))))))))))))))))))))))))))))))))))))))))))))))))))))))))))))
(check-sat)
(exit)
